NAME          ClpDefau
ROWS
 N  OBJROW
 L  R_312_0
 L  R_312_1
 L  R_312_2
 L  R_312_3
 L  R_312_4
 L  R_312_5
 L  R_312_6
 L  R_312_7
 L  R_312_8
 L  R_312_9
 L  R_312_10
 L  R_312_11
 L  R_312_12
 L  R_312_13
 L  R_312_14
 L  R_312_15
COLUMNS
    x_0       OBJROW     -8.           R_312_1   93.         
    x_0       R_312_3   48.            R_312_4   57.         
    x_0       R_312_5   5.             R_312_7   41.         
    x_0       R_312_9   68.            R_312_10  23.         
    x_0       R_312_11  4.             R_312_12  23.         
    x_0       R_312_13  66.            R_312_14  66.         
    x_0       R_312_15  24.         
    x_1       OBJROW     -12.          R_312_1   54.         
    x_1       R_312_2   98.            R_312_3   76.         
    x_1       R_312_4   58.            R_312_5   97.         
    x_1       R_312_6   95.            R_312_7   68.         
    x_1       R_312_8   36.            R_312_10  46.         
    x_1       R_312_11  59.            R_312_13  73.         
    x_1       R_312_14  72.            R_312_15  63.         
    x_2       OBJROW     -11.          R_312_0   42.         
    x_2       R_312_4   99.            R_312_6   91.         
    x_2       R_312_8   65.            R_312_9   76.         
    x_2       R_312_10  94.            R_312_11  66.         
    x_2       R_312_12  88.            R_312_13  10.         
    x_2       R_312_14  44.            R_312_15  25.         
    x_3       OBJROW     -47.          R_312_1   74.         
    x_3       R_312_2   35.            R_312_3   88.         
    x_3       R_312_5   67.            R_312_6   35.         
    x_3       R_312_7   27.            R_312_9   92.         
    x_3       R_312_10  8.             R_312_11  23.         
    x_3       R_312_12  4.             R_312_13  9.          
    x_3       R_312_14  94.         
    x_4       OBJROW     -22.          R_312_0   17.         
    x_4       R_312_2   24.            R_312_3   1.          
    x_4       R_312_4   6.             R_312_5   32.         
    x_4       R_312_6   5.             R_312_7   79.         
    x_4       R_312_8   96.            R_312_9   44.         
    x_4       R_312_10  40.            R_312_11  99.         
    x_4       R_312_12  6.             R_312_14  80.         
    x_4       R_312_15  61.         
    x_5       OBJROW     -95.          R_312_1   88.         
    x_5       R_312_2   14.            R_312_3   17.         
    x_5       R_312_4   100.           R_312_5   66.         
    x_5       R_312_6   44.            R_312_7   78.         
    x_5       R_312_9   90.            R_312_10  18.         
    x_5       R_312_11  33.            R_312_12  21.         
    x_5       R_312_13  59.            R_312_14  66.         
    x_6       OBJROW     -86.          R_312_0   5.          
    x_6       R_312_2   57.            R_312_3   11.         
    x_6       R_312_4   80.            R_312_5   80.         
    x_6       R_312_6   33.            R_312_7   36.         
    x_6       R_312_8   1.             R_312_9   50.         
    x_6       R_312_10  15.            R_312_11  12.         
    x_6       R_312_12  13.            R_312_13  97.         
    x_6       R_312_14  28.            R_312_15  86.         
    x_7       OBJROW     -40.          R_312_0   40.         
    x_7       R_312_1   49.            R_312_2   98.         
    x_7       R_312_4   56.            R_312_5   3.          
    x_7       R_312_6   7.             R_312_9   13.         
    x_7       R_312_10  62.            R_312_11  67.         
    x_7       R_312_13  47.            R_312_14  48.         
    x_7       R_312_15  88.         
    x_8       OBJROW     -33.          R_312_0   14.         
    x_8       R_312_1   100.           R_312_2   3.          
    x_8       R_312_4   82.            R_312_5   27.         
    x_8       R_312_7   1.             R_312_8   48.         
    x_8       R_312_9   93.            R_312_10  97.         
    x_8       R_312_11  15.            R_312_12  51.         
    x_8       R_312_13  18.            R_312_14  51.         
    x_9       OBJROW     -78.          R_312_0   16.         
    x_9       R_312_1   43.            R_312_2   28.         
    x_9       R_312_3   4.             R_312_4   61.         
    x_9       R_312_5   93.            R_312_6   38.         
    x_9       R_312_7   59.            R_312_8   48.         
    x_9       R_312_9   68.            R_312_11  94.         
    x_9       R_312_15  30.         
    x_10      OBJROW     -28.          R_312_0   77.         
    x_10      R_312_1   55.            R_312_2   90.         
    x_10      R_312_4   74.            R_312_5   46.         
    x_10      R_312_6   70.            R_312_7   54.         
    x_10      R_312_9   88.            R_312_11  17.         
    x_10      R_312_13  91.            R_312_14  88.         
    x_10      R_312_15  23.         
    x_11      OBJROW     -78.          R_312_0   15.         
    x_11      R_312_1   97.            R_312_2   43.         
    x_11      R_312_3   92.            R_312_4   22.         
    x_11      R_312_6   91.            R_312_7   46.         
    x_11      R_312_8   74.            R_312_9   60.         
    x_11      R_312_10  4.             R_312_12  95.         
    x_11      R_312_13  66.            R_312_14  36.         
    x_11      R_312_15  91.         
    x_12      OBJROW     -5.           R_312_0   53.         
    x_12      R_312_1   61.            R_312_2   71.         
    x_12      R_312_3   96.            R_312_5   93.         
    x_12      R_312_6   80.            R_312_7   86.         
    x_12      R_312_8   82.            R_312_10  68.         
    x_12      R_312_11  60.            R_312_12  13.         
    x_12      R_312_13  28.            R_312_14  78.         
    x_12      R_312_15  28.         
    x_13      OBJROW     -75.          R_312_1   72.         
    x_13      R_312_2   26.            R_312_3   76.         
    x_13      R_312_4   63.            R_312_6   79.         
    x_13      R_312_7   62.            R_312_8   73.         
    x_13      R_312_9   92.            R_312_10  98.         
    x_13      R_312_11  1.             R_312_13  86.         
    x_13      R_312_14  97.            R_312_15  87.         
    x_14      OBJROW     -88.          R_312_1   65.         
    x_14      R_312_2   11.            R_312_3   45.         
    x_14      R_312_4   97.            R_312_7   81.         
    x_14      R_312_8   93.            R_312_9   21.         
    x_14      R_312_10  60.            R_312_11  20.         
    x_14      R_312_12  72.            R_312_13  1.          
    x_14      R_312_14  69.         
    x_15      OBJROW     -21.          R_312_0   27.         
    x_15      R_312_2   84.            R_312_3   89.         
    x_15      R_312_4   39.            R_312_5   41.         
    x_15      R_312_6   83.            R_312_8   83.         
    x_15      R_312_9   12.            R_312_10  27.         
    x_15      R_312_11  68.            R_312_13  65.         
    x_15      R_312_14  40.            R_312_15  59.         
RHS
    RHS       R_312_0   734.           R_312_1   397.        
    RHS       R_312_2   695.           R_312_3   444.        
    RHS       R_312_4   222.           R_312_5   274.        
    RHS       R_312_6   274.           R_312_7   851.        
    RHS       R_312_8   548.           R_312_9   533.        
    RHS       R_312_10  378.           R_312_11  486.        
    RHS       R_312_12  524.           R_312_13  239.        
    RHS       R_312_14  502.           R_312_15  628.        
BOUNDS
 UI BOUND     x_0       100.        
 UI BOUND     x_1       100.        
 UI BOUND     x_2       100.        
 UI BOUND     x_3       100.        
 UI BOUND     x_4       100.        
 UI BOUND     x_5       100.        
 UI BOUND     x_6       100.        
 UI BOUND     x_7       100.        
 UI BOUND     x_8       100.        
 UI BOUND     x_9       100.        
 UI BOUND     x_10      100.        
 UI BOUND     x_11      100.        
 UI BOUND     x_12      100.        
 UI BOUND     x_13      100.        
 UI BOUND     x_14      100.        
 UI BOUND     x_15      100.        
ENDATA
